networks/zoo_26_156/zoo_26_156-lower.sol
<?xml version = "1.0" encoding="UTF-8" standalone="yes"?>
<CPLEXSolution version="1.2">
 <header
   problemName="networks/zoo_26_156/zoo_26_156-lower.lp"
   solutionName="incumbent"
   solutionIndex="-1"
   objectiveValue="13"
   solutionTypeValue="3"
   solutionTypeString="primal"
   solutionStatusValue="101"
   solutionStatusString="integer optimal solution"
   solutionMethodString="mip"
   primalFeasible="1"
   dualFeasible="1"
   MIPNodes="0"
   MIPIterations="0"
   writeLevel="3"/>
 <quality
   epInt="1.0000000000000001e-05"
   epRHS="9.9999999999999995e-07"
   maxIntInfeas="0"
   maxPrimalInfeas="0"
   maxX="1"
   maxSlack="1"/>
 <variables>
  <variable name="Y(1,2)" index="1" value="1"/>
  <variable name="Y(2,3)" index="28" value="1"/>
  <variable name="Y(3,4)" index="55" value="1"/>
  <variable name="Y(4,5)" index="82" value="1"/>
  <variable name="Y(5,6)" index="109" value="1"/>
  <variable name="Y(6,7)" index="136" value="1"/>
  <variable name="Y(7,8)" index="163" value="1"/>
  <variable name="Y(8,9)" index="190" value="1"/>
  <variable name="Y(9,10)" index="217" value="1"/>
  <variable name="Y(10,11)" index="244" value="1"/>
  <variable name="Y(11,12)" index="271" value="1"/>
  <variable name="Y(12,13)" index="298" value="1"/>
  <variable name="Y(13,1)" index="312" value="1"/>
  <variable name="X(1,11,1)" index="4056" value="1"/>
  <variable name="X(1,14,13)" index="4224" value="1"/>
  <variable name="X(2,3,2)" index="4369" value="1"/>
  <variable name="X(2,5,13)" index="4536" value="1"/>
  <variable name="X(2,13,24)" index="4703" value="1"/>
  <variable name="X(2,15,1)" index="4836" value="1"/>
  <variable name="X(3,2,25)" index="5016" value="1"/>
  <variable name="X(3,4,27)" index="5174" value="1"/>
  <variable name="X(3,16,2)" index="5305" value="1"/>
  <variable name="X(4,3,38)" index="5497" value="1"/>
  <variable name="X(4,5,37)" index="5652" value="1"/>
  <variable name="X(4,17,3)" index="5774" value="1"/>
  <variable name="X(5,2,1)" index="5928" value="1"/>
  <variable name="X(5,4,3)" index="6086" value="1"/>
  <variable name="X(5,7,17)" index="6256" value="1"/>
  <variable name="X(5,8,13)" index="6408" value="1"/>
  <variable name="X(5,12,21)" index="6572" value="1"/>
  <variable name="X(5,13,12)" index="6719" value="1"/>
  <variable name="X(5,18,4)" index="6867" value="1"/>
  <variable name="X(6,7,62)" index="7081" value="1"/>
  <variable name="X(6,8,61)" index="7236" value="1"/>
  <variable name="X(6,19,5)" index="7336" value="1"/>
  <variable name="X(7,5,62)" index="7549" value="1"/>
  <variable name="X(7,6,17)" index="7660" value="1"/>
  <variable name="X(7,8,73)" index="7872" value="1"/>
  <variable name="X(7,20,6)" index="7961" value="1"/>
  <variable name="X(8,5,1)" index="8112" value="1"/>
  <variable name="X(8,6,5)" index="8272" value="1"/>
  <variable name="X(8,7,6)" index="8429" value="1"/>
  <variable name="X(8,11,13)" index="8592" value="1"/>
  <variable name="X(8,21,7)" index="8742" value="1"/>
  <variable name="X(9,10,9)" index="8900" value="1"/>
  <variable name="X(9,11,97)" index="9144" value="1"/>
  <variable name="X(9,22,8)" index="9211" value="1"/>
  <variable name="X(10,9,109)" index="9468" value="1"/>
  <variable name="X(10,12,98)" index="9613" value="1"/>
  <variable name="X(10,23,9)" index="9680" value="1"/>
  <variable name="X(11,1,13)" index="9840" value="1"/>
  <variable name="X(11,8,1)" index="9984" value="1"/>
  <variable name="X(11,9,8)" index="10147" value="1"/>
  <variable name="X(11,12,11)" index="10306" value="1"/>
  <variable name="X(11,24,10)" index="10461" value="1"/>
  <variable name="X(12,5,98)" index="10705" value="1"/>
  <variable name="X(12,10,21)" index="10784" value="1"/>
  <variable name="X(12,11,133)" index="11052" value="1"/>
  <variable name="X(12,25,11)" index="11086" value="1"/>
  <variable name="X(13,2,146)" index="11377" value="1"/>
  <variable name="X(13,5,145)" index="11532" value="1"/>
  <variable name="X(13,26,12)" index="11555" value="1"/>
 </variables>
</CPLEXSolution>
